30
221
5
60
94
4
70
34
0 2
0 4
0 5
0 7
0 9
0 10
0 13
0 19
0 20
0 22
0 24
0 26
0 27
0 28
1 2
1 3
1 4
1 5
1 7
1 8
1 14
1 15
1 19
1 20
1 25
1 26
1 28
1 29
2 3
2 7
2 8
2 10
2 12
2 13
2 15
2 17
2 19
2 23
2 24
2 25
2 27
2 28
3 4
3 5
3 7
3 9
3 10
3 11
3 13
3 17
3 18
3 20
3 26
3 27
4 5
4 6
4 7
4 12
4 13
4 14
4 15
4 17
4 20
4 21
4 22
4 24
4 27
5 8
5 10
5 12
5 13
5 14
5 15
5 16
5 19
5 20
5 23
5 25
5 28
6 7
6 12
6 14
6 15
6 17
6 19
6 20
6 25
6 26
6 27
6 28
7 9
7 10
7 13
7 17
7 21
7 22
7 23
7 24
7 26
7 28
7 29
8 10
8 12
8 13
8 15
8 16
8 17
8 19
8 24
8 26
8 27
8 29
9 11
9 14
9 18
9 19
9 20
9 21
9 24
9 25
9 26
9 27
9 29
10 11
10 12
10 14
10 15
10 20
10 24
10 25
10 27
10 28
11 18
11 20
11 21
11 22
11 24
11 25
11 26
12 13
12 14
12 15
12 16
12 18
12 19
12 21
12 22
12 23
12 24
12 25
12 28
12 29
13 14
13 16
13 17
13 18
13 20
13 23
13 25
13 26
13 27
14 18
14 19
14 20
14 24
14 25
14 27
14 29
15 16
15 21
15 23
15 24
15 26
15 28
16 19
16 22
16 26
16 27
16 29
17 19
17 23
17 25
17 26
17 28
17 29
18 21
18 24
18 27
19 20
19 21
19 22
19 23
19 24
19 26
19 29
20 24
20 26
20 27
20 29
21 22
21 23
21 25
21 27
21 28
22 23
22 28
23 24
23 25
23 26
23 28
23 29
24 26
24 28
24 29
25 28
25 29
26 27
26 28
26 29
27 28
27 29
9 20 19 27 0 14 12
29 5 21 13 17 8 10
2 4 1 6 11 23 22
28 3 25 18 15 7 16
26 24
